15 180
0 8 55 32 18 55 45 66 40 38 29 90 33 5 69 
8 0 56 35 78 57 94 99 32 40 22 7 21 25 85 
55 56 0 62 42 67 4 79 81 53 43 26 75 76 48 
32 35 62 0 79 37 39 12 85 13 8 17 36 5 65 
18 78 42 79 0 55 14 3 81 37 97 6 76 7 71 
55 57 67 37 55 0 87 3 39 86 53 29 23 89 60 
45 94 4 39 14 87 0 78 73 11 84 21 67 26 92 
66 99 79 12 3 3 78 0 72 53 45 79 54 98 31 
40 32 81 85 81 39 73 72 0 20 82 38 97 53 88 
38 40 53 13 37 86 11 53 20 0 41 9 47 28 73 
29 22 43 8 97 53 84 45 82 41 0 77 10 76 21 
90 7 26 17 6 29 21 79 38 9 77 0 15 100 69 
33 21 75 36 76 23 67 54 97 47 10 15 0 55 13 
5 25 76 5 7 89 26 98 53 28 76 100 55 0 25 
69 85 48 65 71 60 92 31 88 73 21 69 13 25 0 
